p cnf 14 21
-14 -12 8 0
-14 9 -3 0
-14 -8 -6 0
-14 -8 5 0
-14 -7 -6 0
-13 -9 -7 0
13 -8 7 0
-13 -5 -3 0
12 -11 6 0
12 -10 7 0
-12 9 8 0
-12 7 -4 0
12 6 5 0
-11 -8 -2 0
11 -7 -6 0
11 -7 5 0
-11 3 -1 0
-10 -8 6 0
7 -6 -5 0
7 5 -1 0
-6 5 -3 0
